aa
aa
aar
ab
abk
ace
ach
ada
ady
ae
af
afa
afh
afr
af-ZA
ain
ak
aka
akk
alb (B)
ale
alg
alt
am
amh
an
ang
anp
apa
ar
ara
ar-AE
ar-BH
arc
ar-DZ
ar-EG
arg
ar-IQ
ar-JO
ar-KW
ar-LB
ar-LY
arm (B)
ar-MA
arn
ar-OM
arp
ar-QA
ar-SA
ar-SY
art
ar-TN
arw
ar-YE
as
asm
ast
ath
aus
av
ava
ave
awa
ay
aym
az
aze
ba
bad
bai
bak
bal
bam
ban
baq (B)
bas
bat
be
be-BY
bej
bel
bem
ben
ber
bg
bg-BG
bh
bho
bi
bih
bik
bin
bis
bla
bm
bn
bnt
bo
bod
bod (T)
bos
br
bra
bre
bs
btk
bua
bug
bul
bur (B)
byn
ca
cad
ca-ES
cai
car
cat
cau
ce
ceb
cel
ces
ces (T)
ch
cha
chb
che
chg
chi (B)
chk
chm
chn
cho
chp
chr
chu
chv
chy
cmc
co
cop
cor
cos
cpe
cpf
cpp
cr
cre
crh
crp
cs
csb
cs-CZ
cu
cus
cv
cy
Cy-az-AZ
cym
cym (T)
Cy-sr-SP
Cy-uz-UZ
cze (B)
da
da-DK
dak
dan
dar
day
de
de-AT
de-CH
de-DE
del
de-LI
de-LU
den
deu
deu (T)
dgr
din
div
div-MV
doi
dra
dsb
dua
dum
dut (B)
dv
dyu
dz
dzo
ee
efi
egy
eka
el
el-GR
ell
ell (T)
elx
en
en-AU
en-BZ
en-CA
en-CB
eng
en-GB
en-IE
en-JM
enm
en-NZ
en-PH
en-TT
en-US
en-ZA
en-ZW
eo
epo
es
es-AR
es-BO
es-CL
es-CO
es-CR
es-DO
es-EC
es-ES
es-GT
es-HN
es-MX
es-NI
es-PA
es-PE
es-PR
es-PY
es-SV
est
es-UY
es-VE
et
et-EE
eu
eu-ES
eus
eus (T)
ewe
ewo
fa
fa-IR
fan
fao
fas
fas (T)
fat
ff
fi
fi-FI
fij
fil
fin
fiu
fj
fo
fo-FO
fon
fr
fra
fra (T)
fr-BE
fr-CA
fr-CH
fre (B)
fr-FR
fr-LU
frm
fr-MC
fro
frr
frs
fry
ful
fur
fy
ga
gaa
gay
gba
gd
gem
geo (B)
ger (B)
gez
gil
gl
gla
gle
gl-ES
glg
glv
gmh
gn
goh
gon
gor
got
grb
grc
gre (B)
grn
gsw
gu
gu-IN
guj
gv
gwi
ha
hai
hat
hau
haw
he
heb
he-IL
her
hi
hi-IN
hil
him
hin
hit
hmn
hmo
ho
hr
hr-HR
hrv
hsb
ht
hu
hu-HU
hun
hup
hy
hy-AM
hye
hye (T)
hz
ia
iba
ibo
ice (B)
id
id-ID
ido
ie
ig
ii
iii
ijo
ik
iku
ile
ilo
ina
inc
ind
ine
inh
io
ipk
ira
iro
is
is-IS
isl
isl (T)
it
ita
it-CH
it-IT
iu
ja
ja-JP
jav
jbo
jpn
jpr
jrb
jv
ka
kaa
kab
kac
ka-GE
kal
kam
kan
kar
kas
kat
kat (T)
kau
kaw
kaz
kbd
kg
kha
khi
khm
kho
ki
kik
kin
kir
kj
kk
kk-KZ
kl
km
kmb
kn
kn-IN
ko
kok
kok-IN
ko-KR
kom
kon
kor
kos
kpe
kr
krc
krl
kro
kru
ks
ku
kua
kum
kur
kut
kv
kw
ky
ky-KZ
la
lad
lah
lam
lao
lat
lav
lb
lez
lg
li
lim
lin
lit
ln
lo
lol
loz
lt
Lt-az-AZ
lt-LT
Lt-sr-SP
Lt-uz-UZ
ltz
lu
lua
lub
lug
lui
lun
luo
lus
lv
lv-LV
mac (B)
mad
mag
mah
mai
mak
mal
man
mao (B)
map
mar
mas
may (B)
mdf
mdr
men
mg
mga
mh
mi
mic
min
mis
mk
mkd
mkd (T)
mkh
mk-MK
ml
mlg
mlt
mn
mnc
mni
mn-MN
mno
moh
mon
mos
mr
mri
mri (T)
mr-IN
ms
msa
msa (T)
ms-BN
ms-MY
mt
mul
mun
mus
mwl
mwr
my
mya
mya (T)
myn
myv
na
nah
nai
nap
nau
nav
nb
nbl
nb-NO
nd
nde
ndo
nds
ne
nep
new
ng
nia
nic
niu
nl
nl-BE
nld
nld (T)
nl-NL
nn
nn-NO
nno
no
nob
nog
non
nor
nqo
nr
nso
nub
nv
nwc
ny
nya
nym
nyn
nyo
nzi
oc
oci
oj
oji
om
or
ori
orm
os
osa
oss
ota
oto
pa
paa
pag
pa-IN
pal
pam
pan
pap
pau
peo
per (B)
phi
phn
pi
pl
pli
pl-PL
pol
pon
por
pra
pro
ps
pt
pt-BR
pt-PT
pus
qaa-qtz
qu
que
raj
rap
rar
rm
rn
ro
roa
roh
rom
ron
ron (T)
ro-RO
ru
rum (B)
run
rup
ru-RU
rus
rw
sa
sad
sag
sah
sai
sa-IN
sal
sam
san
sas
sat
sc
scn
sco
sd
se
sel
sem
sg
sga
sgn
shn
si
sid
sin
sio
sit
sk
sk-SK
sl
sla
slk
slk (T)
slo (B)
sl-SI
slv
sm
sma
sme
smi
smj
smn
smo
sms
sn
sna
snd
snk
so
sog
som
son
sot
spa
sq
sq-AL
sqi
sqi (T)
sr
srd
srn
srp
srr
ss
ssa
ssw
st
su
suk
sun
sus
sux
sv
sv-FI
sv-SE
sw
swa
swe
sw-KE
syc
syr
syr-SY
ta
tah
tai
ta-IN
tam
tat
te
te-IN
tel
tem
ter
tet
tg
tgk
tgl
th
tha
th-TH
ti
tib (B)
tig
tir
tiv
tk
tkl
tl
tlh
tli
tmh
tn
to
tog
ton
tpi
tr
tr-TR
ts
tsi
tsn
tso
tt
tt-RU
tuk
tum
tup
tur
tut
tvl
tw
twi
ty
tyv
udm
ug
uga
uig
uk
ukr
uk-UA
umb
und
ur
urd
ur-PK
uz
uzb
vai
ve
ven
vi
vie
vi-VN
vo
vol
vot
wa
wak
wal
war
was
wel (B)
wen
wln
wo
wol
xal
xh
xho
yao
yap
yi
yid
yo
yor
ypk
za
zap
zbl
zen
zgh
zh
zha
zh-CHS
zh-CHT
zh-CN
zh-HK
zh-MO
zho
zho (T)
zh-SG
zh-TW
znd
zu
zul
zun
zxx
zza
